78 34 54 124 122 181 86 41 175 113 57 42 15 193 96 97 196 119 123 58 151 6 132 46 80 77 109 145 61 52 185 81 106 148 166 129 146 98 157 59 43 135 18 186 32 115 103 67 95 108 83 37 45 172 0 144 177 142 133 191 24 66 131 68 154 13 39 112 100 47 29 12 155 104 128 162 140 76 60 22 40 179 149 141 71 17 48 16 153 30 165 73 31 88 21 138 161 189 114 105 44 69 192 72 79 70 118 4 63 188 51 74 89 139 93 198 35 168 169 167 183 182 82 2 126 92 94 150 27 99 121 117 50 116 178 1 163 56 136 19 159 180 190 49 137 170 25 53 8 173 64 187 143 102 111 194 197 11 164 65 7 171 62 134 14 5 36 125 107 152 110 160 55 147 130 91 9 195 38 26 120 176 156 75 20 101 10 33 184 158 85 84 23 87 174 199 127 90 28 3